p edge 806 756
e 1 2
e 1 3
e 1 4
e 1 5
e 1 6
e 1 7
e 1 8
e 1 9
e 1 10
e 1 11
e 12 13
e 12 14
e 12 15
e 12 16
e 12 17
e 12 18
e 12 19
e 12 20
e 12 21
e 12 22
e 12 23
e 12 24
e 12 25
e 12 26
e 12 27
e 12 28
e 12 29
e 12 30
e 12 31
e 12 32
e 33 34
e 33 35
e 33 36
e 33 37
e 33 38
e 33 39
e 33 40
e 33 41
e 33 42
e 33 43
e 44 45
e 44 46
e 44 47
e 44 48
e 44 49
e 44 50
e 44 51
e 44 52
e 44 53
e 44 54
e 44 55
e 44 56
e 44 57
e 44 58
e 44 59
e 60 61
e 60 62
e 60 63
e 60 64
e 60 65
e 60 66
e 60 67
e 60 68
e 60 69
e 60 70
e 60 71
e 60 72
e 60 73
e 60 74
e 60 75
e 76 77
e 76 78
e 76 79
e 76 80
e 76 81
e 76 82
e 76 83
e 76 84
e 76 85
e 76 86
e 76 87
e 76 88
e 76 89
e 76 90
e 76 91
e 76 92
e 93 94
e 93 95
e 93 96
e 93 97
e 93 98
e 93 99
e 93 100
e 93 101
e 93 102
e 93 103
e 93 104
e 93 105
e 93 106
e 93 107
e 93 108
e 93 109
e 93 110
e 93 111
e 93 112
e 113 114
e 113 115
e 113 116
e 113 117
e 113 118
e 113 119
e 113 120
e 113 121
e 113 122
e 113 123
e 113 124
e 113 125
e 113 126
e 113 127
e 113 128
e 113 129
e 113 130
e 131 132
e 131 133
e 131 134
e 131 135
e 131 136
e 131 137
e 131 138
e 131 139
e 131 140
e 131 141
e 131 142
e 143 144
e 143 145
e 143 146
e 143 147
e 143 148
e 143 149
e 143 150
e 143 151
e 143 152
e 143 153
e 143 154
e 143 155
e 143 156
e 143 157
e 143 158
e 143 159
e 143 160
e 161 162
e 161 163
e 161 164
e 161 165
e 161 166
e 161 167
e 161 168
e 161 169
e 161 170
e 161 171
e 161 172
e 173 174
e 173 175
e 173 176
e 173 177
e 173 178
e 173 179
e 173 180
e 173 181
e 173 182
e 173 183
e 173 184
e 173 185
e 173 186
e 173 187
e 188 189
e 188 190
e 188 191
e 188 192
e 188 193
e 188 194
e 188 195
e 188 196
e 188 197
e 188 198
e 188 199
e 188 200
e 188 201
e 202 203
e 202 204
e 202 205
e 202 206
e 202 207
e 202 208
e 202 209
e 202 210
e 202 211
e 202 212
e 202 213
e 202 214
e 202 215
e 202 216
e 202 217
e 202 218
e 219 220
e 219 221
e 219 222
e 219 223
e 219 224
e 219 225
e 219 226
e 219 227
e 219 228
e 219 229
e 219 230
e 219 231
e 219 232
e 233 234
e 233 235
e 233 236
e 233 237
e 233 238
e 233 239
e 233 240
e 233 241
e 233 242
e 233 243
e 233 244
e 233 245
e 246 247
e 246 248
e 246 249
e 246 250
e 246 251
e 246 252
e 246 253
e 246 254
e 246 255
e 246 256
e 246 257
e 246 258
e 246 259
e 246 260
e 246 261
e 246 262
e 246 263
e 246 264
e 265 266
e 265 267
e 265 268
e 265 269
e 265 270
e 265 271
e 265 272
e 265 273
e 265 274
e 265 275
e 265 276
e 277 278
e 277 279
e 277 280
e 277 281
e 277 282
e 277 283
e 277 284
e 277 285
e 277 286
e 277 287
e 277 288
e 277 289
e 290 291
e 290 292
e 290 293
e 290 294
e 290 295
e 290 296
e 290 297
e 290 298
e 290 299
e 290 300
e 290 301
e 290 302
e 290 303
e 290 304
e 290 305
e 290 306
e 290 307
e 290 308
e 309 310
e 309 311
e 309 312
e 309 313
e 309 314
e 309 315
e 309 316
e 309 317
e 309 318
e 309 319
e 309 320
e 309 321
e 309 322
e 309 323
e 309 324
e 309 325
e 309 326
e 309 327
e 309 328
e 309 329
e 330 331
e 330 332
e 330 333
e 330 334
e 330 335
e 330 336
e 330 337
e 330 338
e 330 339
e 330 340
e 330 341
e 330 342
e 330 343
e 330 344
e 330 345
e 330 346
e 330 347
e 330 348
e 330 349
e 350 351
e 350 352
e 350 353
e 350 354
e 350 355
e 350 356
e 350 357
e 350 358
e 350 359
e 350 360
e 350 361
e 350 362
e 350 363
e 350 364
e 365 366
e 365 367
e 365 368
e 365 369
e 365 370
e 365 371
e 365 372
e 365 373
e 365 374
e 365 375
e 365 376
e 365 377
e 365 378
e 365 379
e 365 380
e 365 381
e 365 382
e 383 384
e 383 385
e 383 386
e 383 387
e 383 388
e 383 389
e 383 390
e 383 391
e 383 392
e 383 393
e 394 395
e 394 396
e 394 397
e 394 398
e 394 399
e 394 400
e 394 401
e 394 402
e 394 403
e 394 404
e 394 405
e 394 406
e 394 407
e 394 408
e 394 409
e 394 410
e 411 412
e 411 413
e 411 414
e 411 415
e 411 416
e 411 417
e 411 418
e 411 419
e 411 420
e 411 421
e 411 422
e 411 423
e 411 424
e 411 425
e 411 426
e 427 428
e 427 429
e 427 430
e 427 431
e 427 432
e 427 433
e 427 434
e 427 435
e 427 436
e 427 437
e 438 439
e 438 440
e 438 441
e 438 442
e 438 443
e 438 444
e 438 445
e 438 446
e 438 447
e 438 448
e 438 449
e 438 450
e 438 451
e 438 452
e 438 453
e 438 454
e 438 455
e 438 456
e 438 457
e 458 459
e 458 460
e 458 461
e 458 462
e 458 463
e 458 464
e 458 465
e 458 466
e 458 467
e 458 468
e 458 469
e 458 470
e 458 471
e 472 473
e 472 474
e 472 475
e 472 476
e 472 477
e 472 478
e 472 479
e 472 480
e 472 481
e 472 482
e 472 483
e 472 484
e 472 485
e 472 486
e 472 487
e 472 488
e 472 489
e 490 491
e 490 492
e 490 493
e 490 494
e 490 495
e 490 496
e 490 497
e 490 498
e 490 499
e 490 500
e 490 501
e 490 502
e 490 503
e 490 504
e 490 505
e 490 506
e 507 508
e 507 509
e 507 510
e 507 511
e 507 512
e 507 513
e 507 514
e 507 515
e 507 516
e 507 517
e 507 518
e 507 519
e 507 520
e 507 521
e 507 522
e 507 523
e 507 524
e 507 525
e 526 527
e 526 528
e 526 529
e 526 530
e 526 531
e 526 532
e 526 533
e 526 534
e 526 535
e 526 536
e 526 537
e 526 538
e 526 539
e 526 540
e 526 541
e 526 542
e 526 543
e 526 544
e 545 546
e 545 547
e 545 548
e 545 549
e 545 550
e 545 551
e 545 552
e 545 553
e 545 554
e 545 555
e 545 556
e 545 557
e 545 558
e 545 559
e 545 560
e 545 561
e 545 562
e 545 563
e 545 564
e 565 566
e 565 567
e 565 568
e 565 569
e 565 570
e 565 571
e 565 572
e 565 573
e 565 574
e 565 575
e 565 576
e 565 577
e 565 578
e 565 579
e 565 580
e 565 581
e 582 583
e 582 584
e 582 585
e 582 586
e 582 587
e 582 588
e 582 589
e 582 590
e 582 591
e 582 592
e 582 593
e 594 595
e 594 596
e 594 597
e 594 598
e 594 599
e 594 600
e 594 601
e 594 602
e 594 603
e 594 604
e 594 605
e 594 606
e 594 607
e 594 608
e 594 609
e 594 610
e 611 612
e 611 613
e 611 614
e 611 615
e 611 616
e 611 617
e 611 618
e 611 619
e 611 620
e 611 621
e 611 622
e 611 623
e 624 625
e 624 626
e 624 627
e 624 628
e 624 629
e 624 630
e 624 631
e 624 632
e 624 633
e 624 634
e 624 635
e 624 636
e 624 637
e 624 638
e 639 640
e 639 641
e 639 642
e 639 643
e 639 644
e 639 645
e 639 646
e 639 647
e 639 648
e 639 649
e 639 650
e 651 652
e 651 653
e 651 654
e 651 655
e 651 656
e 651 657
e 651 658
e 651 659
e 651 660
e 651 661
e 651 662
e 651 663
e 651 664
e 665 666
e 665 667
e 665 668
e 665 669
e 665 670
e 665 671
e 665 672
e 665 673
e 665 674
e 665 675
e 665 676
e 665 677
e 665 678
e 665 679
e 665 680
e 681 682
e 681 683
e 681 684
e 681 685
e 681 686
e 681 687
e 681 688
e 681 689
e 681 690
e 681 691
e 681 692
e 681 693
e 681 694
e 681 695
e 681 696
e 681 697
e 681 698
e 681 699
e 700 701
e 700 702
e 700 703
e 700 704
e 700 705
e 700 706
e 700 707
e 700 708
e 700 709
e 700 710
e 700 711
e 700 712
e 700 713
e 700 714
e 700 715
e 700 716
e 700 717
e 718 719
e 718 720
e 718 721
e 718 722
e 718 723
e 718 724
e 718 725
e 718 726
e 718 727
e 718 728
e 718 729
e 718 730
e 718 731
e 718 732
e 718 733
e 718 734
e 718 735
e 736 737
e 736 738
e 736 739
e 736 740
e 736 741
e 736 742
e 736 743
e 736 744
e 736 745
e 736 746
e 736 747
e 736 748
e 736 749
e 736 750
e 736 751
e 736 752
e 736 753
e 736 754
e 736 755
e 736 756
e 757 758
e 757 759
e 757 760
e 757 761
e 757 762
e 757 763
e 757 764
e 757 765
e 757 766
e 757 767
e 757 768
e 757 769
e 757 770
e 757 771
e 757 772
e 757 773
e 757 774
e 757 775
e 776 777
e 776 778
e 776 779
e 776 780
e 776 781
e 776 782
e 776 783
e 776 784
e 776 785
e 776 786
e 776 787
e 788 789
e 788 790
e 788 791
e 788 792
e 788 793
e 788 794
e 788 795
e 788 796
e 788 797
e 788 798
e 788 799
e 788 800
e 788 801
e 788 802
e 788 803
e 788 804
e 788 805
e 788 806
